1191.83,47.51,56.94
1284.64,44.08,52.83
1393.87,40.63,48.69
1365.83,41.46,49.69
1385.95,40.86,48.97
1376.48,41.14,49.3
1249.47,45.32,54.32
1292.0,43.83,52.53
1156.15,48.98,58.7
1345.68,42.08,50.43
1470.04,38.52,46.17
1233.2,45.92,55.03
1303.89,43.43,52.05
1404.78,40.31,48.31
1176.67,48.12,57.68
1259.66,44.95,53.88
1527.63,37.07,44.43
1352.43,41.87,50.18
1248.52,45.36,54.36
1361.67,41.59,49.84
